(set-logic QF_BV)
(declare-fun _substvar_252_ () (_ BitVec 8))
(declare-fun _substvar_234_ () (_ BitVec 8))
(declare-fun _substvar_268_ () (_ BitVec 8))
(declare-fun T1_655 () (_ BitVec 8))
(assert (let ( (?v_2 ((_ zero_extend 24) (_ bv2 8)))) (let ((?v_5 (bvsub (_ bv0 32) (_ bv48 32)))) (let ((?v_6 (bvsub (bvadd ((_ zero_extend 24) _substvar_268_) (bvadd ?v_5 (bvshl ?v_5 ?v_2))) (_ bv48 32)))) (let ((?v_7 (bvsub (bvadd ((_ zero_extend 24) T1_655) (bvshl (bvadd ?v_6 (bvshl ?v_6 ?v_2)) (_ bv0 32))) (_ bv48 32)))) (let ((?v_8 (bvsub (bvadd ((_ zero_extend 24) _substvar_252_) (bvshl (bvadd ?v_7 (bvshl ?v_7 ?v_2)) (_ bv0 32))) (_ bv48 32)))) (let ((?v_9 (bvsub (bvadd (_ bv0 32) (bvshl (bvadd ?v_8 (_ bv0 32)) (_ bv0 32))) (_ bv48 32)))) (let ((?v_10 (bvsub (bvadd (_ bv0 32) (bvshl (bvadd ?v_9 (_ bv0 32)) (_ bv0 32))) (_ bv48 32)))) (= (bvsub (bvadd ((_ zero_extend 24) _substvar_234_) (bvshl (bvadd ?v_10 (bvshl ?v_10 ?v_2)) (_ bv0 32))) (_ bv48 32)) (_ bv4294967295 32))))))))))
(check-sat)
(exit)
